8
0 68 33 48 42 56 65 53 
68 0 97 11 80 91 62 81 
33 97 0 30 98 95 15 59 
48 11 30 0 71 23 57 9 
42 80 98 71 0 21 59 35 
56 91 95 23 21 0 28 39 
65 62 15 57 59 28 0 24 
53 81 59 9 35 39 24 0 
RRBBRBBR
